p cnf 10 50
7 -6 8 0
9 -4 6 0
-7 -2 -4 0
-10 -3 5 0
-6 1 -8 0
3 -10 1 0
6 7 -3 0
4 1 2 0
10 -8 -9 0
-5 3 -9 0
-7 -10 6 0
-10 -4 2 0
-7 -1 -2 0
-1 -9 6 0
3 -7 9 0
3 -9 -7 0
2 6 4 0
-4 8 -2 0
9 10 -4 0
8 3 -7 0
2 10 7 0
-2 4 -9 0
-10 4 -7 0
-6 9 -3 0
1 -7 5 0
3 8 -7 0
4 6 -9 0
-5 10 -2 0
-1 9 7 0
-5 -7 2 0
9 -8 4 0
6 5 2 0
-9 2 -5 0
-8 -9 6 0
1 -6 -5 0
6 1 -5 0
-3 -4 7 0
-9 5 -1 0
9 -6 10 0
-2 -3 1 0
-10 6 -7 0
-6 -4 -7 0
-2 8 3 0
-10 4 -5 0
-2 -4 -8 0
-3 -5 2 0
-4 9 8 0
-3 7 -1 0
-4 -7 -2 0
-5 10 4 0